c --- [ banner ] -------------------------------------------------------------
c 
c CaDiCaL Radically Simplified CDCL SAT Solver
c Copyright (c) 2016-2021 A. Biere, M. Fleury, N. Froleyks
c 
c Version 1.5.2 9c38a080b32c28d805e8e6ca21849856b0cda605
c g++ (Ubuntu 7.5.0-3ubuntu1~18.04) 7.5.0 -Wall -Wextra -O3 -DNDEBUG
c Wed Feb 16 23:15:36 EST 2022 Linux fac-vanhoeve01 5.4.0-99-generic x86_64
c 
c --- [ limit ] --------------------------------------------------------------
c 
c setting time limit to 600 seconds real time (due to '-t 600')
c setting conflict limit to 1000000000 conflicts (due to '1000000000')
c 
c --- [ parsing input ] ------------------------------------------------------
c 
c reading DIMACS file from 'ddfwcnfs/r1000.5.col_234.cnf'
c opening file to read 'ddfwcnfs/r1000.5.col_234.cnf'
c found 'p cnf 234000 35431408' header
c parsed 35431408 clauses in 20.70 seconds process time
c closing file 'ddfwcnfs/r1000.5.col_234.cnf'
c after reading 604318885 bytes 576.3 MB
c 
c --- [ options ] ------------------------------------------------------------
c 
c all options are set to their default value
c 
c --- [ solving ] ------------------------------------------------------------
c 
c time measured in process time since initialization
c 
c  seconds    reductions  redundant   irredundant
c          MB     restarts       trail         variables
c            level   conflicts       glue            remaining
c 
c * 20.70 2880  0 0   0    0    0  0% 0 35300715 178751 76%
c { 20.75 2882  0 0   0    0    0  0% 0 35300715 178751 76%
c - 26.54 2887 227 1   0  300  218 72% 20 35241337 178751 76%
c } 27.14 2887 116 1   7 1000  747 48% 17 35241337 178751 76%
c [ 27.14 2887  0 1   7 1000  747  0% 0 35241337 178751 76%
c O 27.15 2887 77 1   7 1002  749 34% 2 35241337 178751 76%
c - 44.41 3695 151 2   8 2432 1737 44% 36 35241337 178751 76%
c ] 44.62 3695 167 2   8 3001 2197 46% 47 35241337 178751 76%
c { 44.62 3695 116 2   8 3001 2197 48% 17 35241337 178751 76%
c F 63.40 3697 116 2   8 3003 2199  2% 17 35241337 178751 76%
c p 95.28 3704 115 2 322 5000 3661 16% 27 35241337 178751 76%
c - 118.45 3704 109 3 461 5625 3022 17% 29 35241337 178751 76%
c # 119.16 3704 109 3 530 6004 3348 17% 30 35241337 178751 76%
c } 120.35 3704 104 3 747 7001 4089 17% 32 35241337 178751 76%
c [ 120.35 3704 167 3 747 7001 4089 60% 47 35241337 178751 76%
c - 136.24 3705 152 4 749 9883 4415 39% 55 35241337 178751 76%
c I 136.30 3705 153 4 749 10005 4525 39% 55 35241337 178751 76%
c ] 137.39 3705 278 4 752 15001 8589 26% 45 35241337 178751 76%
c { 137.39 3705 104 4 752 15001 8589 17% 32 35241337 178751 76%
c p 167.08 3705 104 4 753 15001 8599 17% 32 35241337 178751 76%
c 
c  seconds      reductions   redundant    irredundant
c           MB      restarts        trail          variables
c              level    conflicts       glue             remaining
c 
c B 174.39 3705 105 4 753 15009 8606 17% 32 35241337 178751 76%
c - 189.27 3705 106 5 770 15204 5652 17% 32 35241337 178751 76%
c s 202.15 3707 106 5 779 15252 5602 17% 33 35241337 178751 76%
c w 242.71 3707 106 5 779 15252 5600 17% 33 35241337 178751 76%
c e 269.27 4041 106 5 779 15252 5592 17% 33 17779453 119109 51%
c s 270.01 4041 106 5 779 15252 5565 17% 33 17779453 119109 51%
c ^ 274.94 4041 106 5 779 15252 5565 17% 33 17779453 119109 51%
c W 300.04 3508 92 5 1493 21010 9489 22% 34 17779453 119109 51%
c - 307.39 3508 91 6 1561 21589 6371 23% 34 17779453 119109 51%
c F 309.58 3508 91 6 1971 28011 11179 22% 33 17779453 119109 51%
c - 316.83 3509 90 7 2025 28414 7075 22% 33 17779453 119109 51%
c p 330.88 3509 87 7 2314 30001 7968 21% 33 17779453 119109 51%
c } 334.68 3509 84 7 2386 31002 8394 21% 33 17779453 119109 51%
c [ 334.68 3509 278 7 2386 31002 8394 38% 45 17779453 119109 51%
c B 335.81 3509 197 7 2389 36013 10919 30% 43 17779453 119109 51%
c - 342.89 3508 205 8 2389 36215 6016 30% 43 17779453 119109 51%
c s 346.52 3508 254 8 2393 44142 12152 35% 61 17779453 119109 51%
c w 364.87 3508 254 8 2393 44142 12148 35% 61 17779453 119109 51%
c s 372.33 3508 254 8 2393 44142 12136 35% 61 17779453 119109 51%
c ^ 376.48 3508 254 8 2393 44142 12136 35% 61 17779453 119109 51%
c 
c  seconds      reductions    redundant    irredundant
c           MB      restarts         trail          variables
c              level     conflicts       glue             remaining
c 
c - 385.72 3514 256 9 2393 44991 8917 36% 64 17779453 119109 51%
c W 410.98 3514 257 9 2393 45017 8942 36% 65 17779453 119109 51%
c p 428.65 3514 270 9 2394 50004 13061 40% 72 17779453 119109 51%
c - 442.54 3512 248 10 2395 54741 10020 39% 76 17779453 119109 51%
c O 442.63 3512 247 10 2395 55019 10205 39% 76 17779453 119109 51%
c ] 445.71 3512 222 10 2401 63006 16203 39% 75 17779453 119109 51%
c { 445.71 3512 84 10 2401 63006 16203 21% 33 17779453 119109 51%
c - 454.98 3511 85 11 2479 65465 11313 22% 33 17779453 119109 51%
c B 455.09 3511 85 11 2479 66021 11800 22% 33 17779453 119109 51%
c p 475.16 3511 88 11 3357 75004 17968 22% 32 17779453 119109 51%
c - 488.99 3510 88 12 3587 77166 11784 22% 32 17779453 119109 51%
c W 506.90 3510 87 12 3808 78023 12211 22% 33 17779453 119109 51%
c s 514.33 3510 85 12 5051 87473 18729 22% 33 17779453 119109 51%
c w 535.20 3510 85 12 5051 87473 18724 22% 33 17779453 119109 51%
c s 544.18 3510 85 12 5051 87473 18662 22% 33 17779453 119109 51%
c ^ 548.93 3510 85 12 5051 87473 18662 22% 33 17779453 119109 51%
c - 558.01 3510 82 13 5636 89840 13758 21% 33 17779453 119109 51%
c # 558.30 3510 81 13 5933 91027 14186 21% 34 17779453 119109 51%
c - 573.34 3510 85 14 6894 103493 14316 21% 32 17779453 119109 51%
c 2 589.20 3510 85 14 7067 105004 15484 21% 32 17779453 119109 51%
c 
c  seconds     reductions       redundant    irredundant
c           MB      restarts           trail          variables
c             level      conflicts         glue             remaining
c 
c p 590.10 3510 85 14 7067 105004 15550 21% 32 17779453 119109 51%
c B 594.09 3510 85 14 7068 105028 15568 21% 32 17779453 119109 51%
c } 599.94 3510 82 14 8662 113869 20983 21% 33 17779453 119109 51%
c ? 599.94 3510 82 14 8662 113869 20983 21% 33 17779453 119109 51%
c 
c --- [ result ] -------------------------------------------------------------
c 
c UNKNOWN
c 
c --- [ run-time profiling ] -------------------------------------------------
c 
c process time taken by individual solving procedures
c (percentage relative to process time for solving)
c 
c       309.10   53.36% search
c       270.14   46.64% simplify
c       177.57   30.66% unstable
c        78.18   13.50% stable
c        70.21   12.12% ternary
c        61.75   10.66% vivify
c        53.30    9.20% walk
c        39.75    6.86% elim
c        20.70    3.57% parse
c        15.49    2.67% subsume
c         6.23    1.07% probe
c         0.05    0.01% lucky
c   =================================
c       579.24   96.55% solve
c 
c last line shows process time for solving
c (percentage relative to total process time)
c 
c --- [ statistics ] ---------------------------------------------------------
c 
c chronological:             30433        26.73 %  of conflicts
c conflicts:                113869       196.58    per second
c decisions:                502668       867.81    per second
c eliminated:                59642        25.49 %  of all variables
c fixed:                     55249        23.61 %  of all variables
c learned:                  112242        98.57 %  per conflict
c learned_lits:           20031221       100.00 %  learned literals
c minimized:                     0         0.00 %  learned literals
c shrunken:               10025170        50.05 %  learned literals
c minishrunken:             553963         2.77 %  learned literals
c propagations:          211062664         0.36 M  per second
c reduced:                   59003        51.82 %  per conflict
c rephased:                     14      8133.50    interval
c restarts:                   8662        13.15    interval
c stabilizing:                   3        36.89 %  of conflicts
c subsumed:                  32305         0.05 %  of all clauses
c strengthened:               8146         0.01 %  of all clauses
c vivified:                     28         0.00 %  of all clauses
c walked:                        3     37956.33    interval
c weakened:               17462469         2.00    average size
c 
c seconds are measured in process time for solving
c 
c --- [ resources ] ----------------------------------------------------------
c 
c total process time since initialization:       599.94    seconds
c total real time since initialization:          600.00    seconds
c maximum resident set size of process:         4782.32    MB
c 
c --- [ shutting down ] ------------------------------------------------------
c 
c exit 0
